100
150
100
100
99
97
95
95
94
93
93
92
91
90
89
89
88
88
86
86
85
84
84
82
82
82
81
81
80
80
79
79
77
77
76
74
74
74
73
72
71
70
69
69
69
67
67
66
66
65
64
64
63
63
62
61
61
61
61
60
59
59
59
58
57
57
57
57
56
55
54
54
54
51
50
50
50
49
48
47
46
46
45
44
42
41
40
40
40
39
38
35
34
29
27
26
25
25
23
23
22
20
